c nIsolatedPIs 10
c maxPI 20
p cnf 322 907
c gate 21 3 12 0
3 -21 0
12 -21 0
-3 -12 21 0
c gate 22 4 11 0
4 -22 0
11 -22 0
-4 -11 22 0
c gate 23 21 22 0
21 -23 0
22 -23 0
-21 -22 23 0
c gate 24 2 13 0
2 -24 0
13 -24 0
-2 -13 24 0
c gate 25 -21 -22 0
-21 -25 0
-22 -25 0
21 22 25 0
c gate 26 -23 -25 0
-23 -26 0
-25 -26 0
23 25 26 0
c gate 27 24 26 0
24 -27 0
26 -27 0
-24 -26 27 0
c gate 28 -23 -27 0
-23 -28 0
-27 -28 0
23 27 28 0
c gate 29 3 13 0
3 -29 0
13 -29 0
-3 -13 29 0
c gate 30 4 12 0
4 -30 0
12 -30 0
-4 -12 30 0
c gate 31 5 11 0
5 -31 0
11 -31 0
-5 -11 31 0
c gate 32 -30 -31 0
-30 -32 0
-31 -32 0
30 31 32 0
c gate 33 30 31 0
30 -33 0
31 -33 0
-30 -31 33 0
c gate 34 -32 -33 0
-32 -34 0
-33 -34 0
32 33 34 0
c gate 35 -29 -34 0
-29 -35 0
-34 -35 0
29 34 35 0
c gate 36 29 34 0
29 -36 0
34 -36 0
-29 -34 36 0
c gate 37 -35 -36 0
-35 -37 0
-36 -37 0
35 36 37 0
c gate 38 -28 37 0
-28 -38 0
37 -38 0
28 -37 38 0
c gate 39 1 15 0
1 -39 0
15 -39 0
-1 -15 39 0
c gate 40 2 14 0
2 -40 0
14 -40 0
-2 -14 40 0
c gate 41 39 40 0
39 -41 0
40 -41 0
-39 -40 41 0
c gate 42 -39 -40 0
-39 -42 0
-40 -42 0
39 40 42 0
c gate 43 -41 -42 0
-41 -43 0
-42 -43 0
41 42 43 0
c gate 44 28 -37 0
28 -44 0
-37 -44 0
-28 37 44 0
c gate 45 -38 -44 0
-38 -45 0
-44 -45 0
38 44 45 0
c gate 46 43 45 0
43 -46 0
45 -46 0
-43 -45 46 0
c gate 47 -38 -46 0
-38 -47 0
-46 -47 0
38 46 47 0
c gate 48 1 16 0
1 -48 0
16 -48 0
-1 -16 48 0
c gate 49 2 15 0
2 -49 0
15 -49 0
-2 -15 49 0
c gate 50 3 14 0
3 -50 0
14 -50 0
-3 -14 50 0
c gate 51 -49 -50 0
-49 -51 0
-50 -51 0
49 50 51 0
c gate 52 49 50 0
49 -52 0
50 -52 0
-49 -50 52 0
c gate 53 -51 -52 0
-51 -53 0
-52 -53 0
51 52 53 0
c gate 54 48 53 0
48 -54 0
53 -54 0
-48 -53 54 0
c gate 55 -48 -53 0
-48 -55 0
-53 -55 0
48 53 55 0
c gate 56 -54 -55 0
-54 -56 0
-55 -56 0
54 55 56 0
c gate 57 -33 -36 0
-33 -57 0
-36 -57 0
33 36 57 0
c gate 58 4 13 0
4 -58 0
13 -58 0
-4 -13 58 0
c gate 59 5 12 0
5 -59 0
12 -59 0
-5 -12 59 0
c gate 60 6 11 0
6 -60 0
11 -60 0
-6 -11 60 0
c gate 61 -59 -60 0
-59 -61 0
-60 -61 0
59 60 61 0
c gate 62 59 60 0
59 -62 0
60 -62 0
-59 -60 62 0
c gate 63 -61 -62 0
-61 -63 0
-62 -63 0
61 62 63 0
c gate 64 -58 -63 0
-58 -64 0
-63 -64 0
58 63 64 0
c gate 65 58 63 0
58 -65 0
63 -65 0
-58 -63 65 0
c gate 66 -64 -65 0
-64 -66 0
-65 -66 0
64 65 66 0
c gate 67 -57 66 0
-57 -67 0
66 -67 0
57 -66 67 0
c gate 68 57 -66 0
57 -68 0
-66 -68 0
-57 66 68 0
c gate 69 -67 -68 0
-67 -69 0
-68 -69 0
67 68 69 0
c gate 70 -56 -69 0
-56 -70 0
-69 -70 0
56 69 70 0
c gate 71 56 69 0
56 -71 0
69 -71 0
-56 -69 71 0
c gate 72 -70 -71 0
-70 -72 0
-71 -72 0
70 71 72 0
c gate 73 -47 72 0
-47 -73 0
72 -73 0
47 -72 73 0
c gate 74 47 -72 0
47 -74 0
-72 -74 0
-47 72 74 0
c gate 75 -73 -74 0
-73 -75 0
-74 -75 0
73 74 75 0
c gate 76 41 75 0
41 -76 0
75 -76 0
-41 -75 76 0
c gate 77 -73 -76 0
-73 -77 0
-76 -77 0
73 76 77 0
c gate 78 1 17 0
1 -78 0
17 -78 0
-1 -17 78 0
c gate 79 -52 -54 0
-52 -79 0
-54 -79 0
52 54 79 0
c gate 80 78 -79 0
78 -80 0
-79 -80 0
-78 79 80 0
c gate 81 -78 79 0
-78 -81 0
79 -81 0
78 -79 81 0
c gate 82 -80 -81 0
-80 -82 0
-81 -82 0
80 81 82 0
c gate 83 -67 -71 0
-67 -83 0
-71 -83 0
67 71 83 0
c gate 84 2 16 0
2 -84 0
16 -84 0
-2 -16 84 0
c gate 85 3 15 0
3 -85 0
15 -85 0
-3 -15 85 0
c gate 86 4 14 0
4 -86 0
14 -86 0
-4 -14 86 0
c gate 87 -85 -86 0
-85 -87 0
-86 -87 0
85 86 87 0
c gate 88 85 86 0
85 -88 0
86 -88 0
-85 -86 88 0
c gate 89 -87 -88 0
-87 -89 0
-88 -89 0
87 88 89 0
c gate 90 84 89 0
84 -90 0
89 -90 0
-84 -89 90 0
c gate 91 -84 -89 0
-84 -91 0
-89 -91 0
84 89 91 0
c gate 92 -90 -91 0
-90 -92 0
-91 -92 0
90 91 92 0
c gate 93 -62 -65 0
-62 -93 0
-65 -93 0
62 65 93 0
c gate 94 5 13 0
5 -94 0
13 -94 0
-5 -13 94 0
c gate 95 6 12 0
6 -95 0
12 -95 0
-6 -12 95 0
c gate 96 7 11 0
7 -96 0
11 -96 0
-7 -11 96 0
c gate 97 -95 -96 0
-95 -97 0
-96 -97 0
95 96 97 0
c gate 98 95 96 0
95 -98 0
96 -98 0
-95 -96 98 0
c gate 99 -97 -98 0
-97 -99 0
-98 -99 0
97 98 99 0
c gate 100 -94 -99 0
-94 -100 0
-99 -100 0
94 99 100 0
c gate 101 94 99 0
94 -101 0
99 -101 0
-94 -99 101 0
c gate 102 -100 -101 0
-100 -102 0
-101 -102 0
100 101 102 0
c gate 103 -93 102 0
-93 -103 0
102 -103 0
93 -102 103 0
c gate 104 93 -102 0
93 -104 0
-102 -104 0
-93 102 104 0
c gate 105 -103 -104 0
-103 -105 0
-104 -105 0
103 104 105 0
c gate 106 -92 -105 0
-92 -106 0
-105 -106 0
92 105 106 0
c gate 107 92 105 0
92 -107 0
105 -107 0
-92 -105 107 0
c gate 108 -106 -107 0
-106 -108 0
-107 -108 0
106 107 108 0
c gate 109 -83 108 0
-83 -109 0
108 -109 0
83 -108 109 0
c gate 110 83 -108 0
83 -110 0
-108 -110 0
-83 108 110 0
c gate 111 -109 -110 0
-109 -111 0
-110 -111 0
109 110 111 0
c gate 112 -82 -111 0
-82 -112 0
-111 -112 0
82 111 112 0
c gate 113 82 111 0
82 -113 0
111 -113 0
-82 -111 113 0
c gate 114 -112 -113 0
-112 -114 0
-113 -114 0
112 113 114 0
c gate 115 -77 114 0
-77 -115 0
114 -115 0
77 -114 115 0
c gate 116 -109 -113 0
-109 -116 0
-113 -116 0
109 113 116 0
c gate 117 -103 -107 0
-103 -117 0
-107 -117 0
103 107 117 0
c gate 118 -98 -101 0
-98 -118 0
-101 -118 0
98 101 118 0
c gate 119 7 12 0
7 -119 0
12 -119 0
-7 -12 119 0
c gate 120 8 11 0
8 -120 0
11 -120 0
-8 -11 120 0
c gate 121 -119 -120 0
-119 -121 0
-120 -121 0
119 120 121 0
c gate 122 119 120 0
119 -122 0
120 -122 0
-119 -120 122 0
c gate 123 -121 -122 0
-121 -123 0
-122 -123 0
121 122 123 0
c gate 124 6 13 0
6 -124 0
13 -124 0
-6 -13 124 0
c gate 125 -123 124 0
-123 -125 0
124 -125 0
123 -124 125 0
c gate 126 123 -124 0
123 -126 0
-124 -126 0
-123 124 126 0
c gate 127 -125 -126 0
-125 -127 0
-126 -127 0
125 126 127 0
c gate 128 118 127 0
118 -128 0
127 -128 0
-118 -127 128 0
c gate 129 -118 -127 0
-118 -129 0
-127 -129 0
118 127 129 0
c gate 130 -128 -129 0
-128 -130 0
-129 -130 0
128 129 130 0
c gate 131 3 16 0
3 -131 0
16 -131 0
-3 -16 131 0
c gate 132 4 15 0
4 -132 0
15 -132 0
-4 -15 132 0
c gate 133 5 14 0
5 -133 0
14 -133 0
-5 -14 133 0
c gate 134 -132 -133 0
-132 -134 0
-133 -134 0
132 133 134 0
c gate 135 132 133 0
132 -135 0
133 -135 0
-132 -133 135 0
c gate 136 -134 -135 0
-134 -136 0
-135 -136 0
134 135 136 0
c gate 137 131 136 0
131 -137 0
136 -137 0
-131 -136 137 0
c gate 138 -131 -136 0
-131 -138 0
-136 -138 0
131 136 138 0
c gate 139 -137 -138 0
-137 -139 0
-138 -139 0
137 138 139 0
c gate 140 -130 139 0
-130 -140 0
139 -140 0
130 -139 140 0
c gate 141 130 -139 0
130 -141 0
-139 -141 0
-130 139 141 0
c gate 142 -140 -141 0
-140 -142 0
-141 -142 0
140 141 142 0
c gate 143 117 142 0
117 -143 0
142 -143 0
-117 -142 143 0
c gate 144 -117 -142 0
-117 -144 0
-142 -144 0
117 142 144 0
c gate 145 -143 -144 0
-143 -145 0
-144 -145 0
143 144 145 0
c gate 146 1 18 0
1 -146 0
18 -146 0
-1 -18 146 0
c gate 147 2 17 0
2 -147 0
17 -147 0
-2 -17 147 0
c gate 148 -146 -147 0
-146 -148 0
-147 -148 0
146 147 148 0
c gate 149 146 147 0
146 -149 0
147 -149 0
-146 -147 149 0
c gate 150 -148 -149 0
-148 -150 0
-149 -150 0
148 149 150 0
c gate 151 -88 -90 0
-88 -151 0
-90 -151 0
88 90 151 0
c gate 152 -150 151 0
-150 -152 0
151 -152 0
150 -151 152 0
c gate 153 150 -151 0
150 -153 0
-151 -153 0
-150 151 153 0
c gate 154 -152 -153 0
-152 -154 0
-153 -154 0
152 153 154 0
c gate 155 -145 154 0
-145 -155 0
154 -155 0
145 -154 155 0
c gate 156 145 -154 0
145 -156 0
-154 -156 0
-145 154 156 0
c gate 157 -155 -156 0
-155 -157 0
-156 -157 0
155 156 157 0
c gate 158 116 157 0
116 -158 0
157 -158 0
-116 -157 158 0
c gate 159 -116 -157 0
-116 -159 0
-157 -159 0
116 157 159 0
c gate 160 -158 -159 0
-158 -160 0
-159 -160 0
158 159 160 0
c gate 161 -80 -160 0
-80 -161 0
-160 -161 0
80 160 161 0
c gate 162 80 160 0
80 -162 0
160 -162 0
-80 -160 162 0
c gate 163 -161 -162 0
-161 -163 0
-162 -163 0
161 162 163 0
c gate 164 115 163 0
115 -164 0
163 -164 0
-115 -163 164 0
c gate 165 -159 -162 0
-159 -165 0
-162 -165 0
159 162 165 0
c gate 166 1 19 0
1 -166 0
19 -166 0
-1 -19 166 0
c gate 167 2 18 0
2 -167 0
18 -167 0
-2 -18 167 0
c gate 168 3 17 0
3 -168 0
17 -168 0
-3 -17 168 0
c gate 169 -167 -168 0
-167 -169 0
-168 -169 0
167 168 169 0
c gate 170 167 168 0
167 -170 0
168 -170 0
-167 -168 170 0
c gate 171 -169 -170 0
-169 -171 0
-170 -171 0
169 170 171 0
c gate 172 -166 -171 0
-166 -172 0
-171 -172 0
166 171 172 0
c gate 173 166 171 0
166 -173 0
171 -173 0
-166 -171 173 0
c gate 174 -172 -173 0
-172 -174 0
-173 -174 0
172 173 174 0
c gate 175 -135 -137 0
-135 -175 0
-137 -175 0
135 137 175 0
c gate 176 174 -175 0
174 -176 0
-175 -176 0
-174 175 176 0
c gate 177 -174 175 0
-174 -177 0
175 -177 0
174 -175 177 0
c gate 178 -176 -177 0
-176 -178 0
-177 -178 0
176 177 178 0
c gate 179 -149 -178 0
-149 -179 0
-178 -179 0
149 178 179 0
c gate 180 149 178 0
149 -180 0
178 -180 0
-149 -178 180 0
c gate 181 -179 -180 0
-179 -181 0
-180 -181 0
179 180 181 0
c gate 182 4 16 0
4 -182 0
16 -182 0
-4 -16 182 0
c gate 183 5 15 0
5 -183 0
15 -183 0
-5 -15 183 0
c gate 184 6 14 0
6 -184 0
14 -184 0
-6 -14 184 0
c gate 185 -183 -184 0
-183 -185 0
-184 -185 0
183 184 185 0
c gate 186 183 184 0
183 -186 0
184 -186 0
-183 -184 186 0
c gate 187 -185 -186 0
-185 -187 0
-186 -187 0
185 186 187 0
c gate 188 -182 -187 0
-182 -188 0
-187 -188 0
182 187 188 0
c gate 189 182 187 0
182 -189 0
187 -189 0
-182 -187 189 0
c gate 190 -188 -189 0
-188 -190 0
-189 -190 0
188 189 190 0
c gate 191 7 13 0
7 -191 0
13 -191 0
-7 -13 191 0
c gate 192 8 12 0
8 -192 0
12 -192 0
-8 -12 192 0
c gate 193 9 11 0
9 -193 0
11 -193 0
-9 -11 193 0
c gate 194 -192 -193 0
-192 -194 0
-193 -194 0
192 193 194 0
c gate 195 192 193 0
192 -195 0
193 -195 0
-192 -193 195 0
c gate 196 -194 -195 0
-194 -196 0
-195 -196 0
194 195 196 0
c gate 197 -191 -196 0
-191 -197 0
-196 -197 0
191 196 197 0
c gate 198 191 196 0
191 -198 0
196 -198 0
-191 -196 198 0
c gate 199 -197 -198 0
-197 -199 0
-198 -199 0
197 198 199 0
c gate 200 -121 -126 0
-121 -200 0
-126 -200 0
121 126 200 0
c gate 201 199 200 0
199 -201 0
200 -201 0
-199 -200 201 0
c gate 202 -199 -200 0
-199 -202 0
-200 -202 0
199 200 202 0
c gate 203 -201 -202 0
-201 -203 0
-202 -203 0
201 202 203 0
c gate 204 -190 -203 0
-190 -204 0
-203 -204 0
190 203 204 0
c gate 205 190 203 0
190 -205 0
203 -205 0
-190 -203 205 0
c gate 206 -204 -205 0
-204 -206 0
-205 -206 0
204 205 206 0
c gate 207 -128 -141 0
-128 -207 0
-141 -207 0
128 141 207 0
c gate 208 206 207 0
206 -208 0
207 -208 0
-206 -207 208 0
c gate 209 -206 -207 0
-206 -209 0
-207 -209 0
206 207 209 0
c gate 210 -208 -209 0
-208 -210 0
-209 -210 0
208 209 210 0
c gate 211 -181 -210 0
-181 -211 0
-210 -211 0
181 210 211 0
c gate 212 181 210 0
181 -212 0
210 -212 0
-181 -210 212 0
c gate 213 -211 -212 0
-211 -213 0
-212 -213 0
211 212 213 0
c gate 214 -143 -156 0
-143 -214 0
-156 -214 0
143 156 214 0
c gate 215 213 214 0
213 -215 0
214 -215 0
-213 -214 215 0
c gate 216 -213 -214 0
-213 -216 0
-214 -216 0
213 214 216 0
c gate 217 -215 -216 0
-215 -217 0
-216 -217 0
215 216 217 0
c gate 218 -153 -217 0
-153 -218 0
-217 -218 0
153 217 218 0
c gate 219 153 217 0
153 -219 0
217 -219 0
-153 -217 219 0
c gate 220 -218 -219 0
-218 -220 0
-219 -220 0
218 219 220 0
c gate 221 165 -220 0
165 -221 0
-220 -221 0
-165 220 221 0
c gate 222 -165 220 0
-165 -222 0
220 -222 0
165 -220 222 0
c gate 223 -221 -222 0
-221 -223 0
-222 -223 0
221 222 223 0
c gate 224 164 223 0
164 -224 0
223 -224 0
-164 -223 224 0
c gate 225 -164 -223 0
-164 -225 0
-223 -225 0
164 223 225 0
c gate 226 -224 -225 0
-224 -226 0
-225 -226 0
224 225 226 0
c gate 227 77 -114 0
77 -227 0
-114 -227 0
-77 114 227 0
c gate 228 -115 -227 0
-115 -228 0
-227 -228 0
115 227 228 0
c gate 229 -41 -75 0
-41 -229 0
-75 -229 0
41 75 229 0
c gate 230 -76 -229 0
-76 -230 0
-229 -230 0
76 229 230 0
c gate 231 -24 -26 0
-24 -231 0
-26 -231 0
24 26 231 0
c gate 232 -27 -231 0
-27 -232 0
-231 -232 0
27 231 232 0
c gate 233 3 11 0
3 -233 0
11 -233 0
-3 -11 233 0
c gate 234 2 12 0
2 -234 0
12 -234 0
-2 -12 234 0
c gate 235 233 234 0
233 -235 0
234 -235 0
-233 -234 235 0
c gate 236 -233 -234 0
-233 -236 0
-234 -236 0
233 234 236 0
c gate 237 1 13 0
1 -237 0
13 -237 0
-1 -13 237 0
c gate 238 -236 237 0
-236 -238 0
237 -238 0
236 -237 238 0
c gate 239 -235 -238 0
-235 -239 0
-238 -239 0
235 238 239 0
c gate 240 232 -239 0
232 -240 0
-239 -240 0
-232 239 240 0
c gate 241 1 14 0
1 -241 0
14 -241 0
-1 -14 241 0
c gate 242 -232 239 0
-232 -242 0
239 -242 0
232 -239 242 0
c gate 243 -240 -242 0
-240 -243 0
-242 -243 0
240 242 243 0
c gate 244 241 243 0
241 -244 0
243 -244 0
-241 -243 244 0
c gate 245 -240 -244 0
-240 -245 0
-244 -245 0
240 244 245 0
c gate 246 -43 -45 0
-43 -246 0
-45 -246 0
43 45 246 0
c gate 247 -46 -246 0
-46 -247 0
-246 -247 0
46 246 247 0
c gate 248 -245 247 0
-245 -248 0
247 -248 0
245 -247 248 0
c gate 249 230 248 0
230 -249 0
248 -249 0
-230 -248 249 0
c gate 250 228 249 0
228 -250 0
249 -250 0
-228 -249 250 0
c gate 251 163 250 0
163 -251 0
250 -251 0
-163 -250 251 0
c gate 252 226 251 0
226 -252 0
251 -252 0
-226 -251 252 0
c gate 253 -215 -219 0
-215 -253 0
-219 -253 0
215 219 253 0
c gate 254 1 20 0
1 -254 0
20 -254 0
-1 -20 254 0
c gate 255 -176 -180 0
-176 -255 0
-180 -255 0
176 180 255 0
c gate 256 254 -255 0
254 -256 0
-255 -256 0
-254 255 256 0
c gate 257 -254 255 0
-254 -257 0
255 -257 0
254 -255 257 0
c gate 258 -256 -257 0
-256 -258 0
-257 -258 0
256 257 258 0
c gate 259 -208 -212 0
-208 -259 0
-212 -259 0
208 212 259 0
c gate 260 -170 -173 0
-170 -260 0
-173 -260 0
170 173 260 0
c gate 261 2 19 0
2 -261 0
19 -261 0
-2 -19 261 0
c gate 262 3 18 0
3 -262 0
18 -262 0
-3 -18 262 0
c gate 263 4 17 0
4 -263 0
17 -263 0
-4 -17 263 0
c gate 264 -262 -263 0
-262 -264 0
-263 -264 0
262 263 264 0
c gate 265 262 263 0
262 -265 0
263 -265 0
-262 -263 265 0
c gate 266 -264 -265 0
-264 -266 0
-265 -266 0
264 265 266 0
c gate 267 -261 -266 0
-261 -267 0
-266 -267 0
261 266 267 0
c gate 268 261 266 0
261 -268 0
266 -268 0
-261 -266 268 0
c gate 269 -267 -268 0
-267 -269 0
-268 -269 0
267 268 269 0
c gate 270 -186 -189 0
-186 -270 0
-189 -270 0
186 189 270 0
c gate 271 269 -270 0
269 -271 0
-270 -271 0
-269 270 271 0
c gate 272 -269 270 0
-269 -272 0
270 -272 0
269 -270 272 0
c gate 273 -271 -272 0
-271 -273 0
-272 -273 0
271 272 273 0
c gate 274 260 -273 0
260 -274 0
-273 -274 0
-260 273 274 0
c gate 275 -260 273 0
-260 -275 0
273 -275 0
260 -273 275 0
c gate 276 -274 -275 0
-274 -276 0
-275 -276 0
274 275 276 0
c gate 277 -201 -205 0
-201 -277 0
-205 -277 0
201 205 277 0
c gate 278 5 16 0
5 -278 0
16 -278 0
-5 -16 278 0
c gate 279 6 15 0
6 -279 0
15 -279 0
-6 -15 279 0
c gate 280 7 14 0
7 -280 0
14 -280 0
-7 -14 280 0
c gate 281 -279 -280 0
-279 -281 0
-280 -281 0
279 280 281 0
c gate 282 279 280 0
279 -282 0
280 -282 0
-279 -280 282 0
c gate 283 -281 -282 0
-281 -283 0
-282 -283 0
281 282 283 0
c gate 284 -278 -283 0
-278 -284 0
-283 -284 0
278 283 284 0
c gate 285 278 283 0
278 -285 0
283 -285 0
-278 -283 285 0
c gate 286 -284 -285 0
-284 -286 0
-285 -286 0
284 285 286 0
c gate 287 -195 -198 0
-195 -287 0
-198 -287 0
195 198 287 0
c gate 288 8 13 0
8 -288 0
13 -288 0
-8 -13 288 0
c gate 289 9 12 0
9 -289 0
12 -289 0
-9 -12 289 0
c gate 290 10 11 0
10 -290 0
11 -290 0
-10 -11 290 0
c gate 291 -289 -290 0
-289 -291 0
-290 -291 0
289 290 291 0
c gate 292 289 290 0
289 -292 0
290 -292 0
-289 -290 292 0
c gate 293 -291 -292 0
-291 -293 0
-292 -293 0
291 292 293 0
c gate 294 -288 -293 0
-288 -294 0
-293 -294 0
288 293 294 0
c gate 295 288 293 0
288 -295 0
293 -295 0
-288 -293 295 0
c gate 296 -294 -295 0
-294 -296 0
-295 -296 0
294 295 296 0
c gate 297 -287 296 0
-287 -297 0
296 -297 0
287 -296 297 0
c gate 298 287 -296 0
287 -298 0
-296 -298 0
-287 296 298 0
c gate 299 -297 -298 0
-297 -299 0
-298 -299 0
297 298 299 0
c gate 300 -286 -299 0
-286 -300 0
-299 -300 0
286 299 300 0
c gate 301 286 299 0
286 -301 0
299 -301 0
-286 -299 301 0
c gate 302 -300 -301 0
-300 -302 0
-301 -302 0
300 301 302 0
c gate 303 -277 302 0
-277 -303 0
302 -303 0
277 -302 303 0
c gate 304 277 -302 0
277 -304 0
-302 -304 0
-277 302 304 0
c gate 305 -303 -304 0
-303 -305 0
-304 -305 0
303 304 305 0
c gate 306 -276 -305 0
-276 -306 0
-305 -306 0
276 305 306 0
c gate 307 276 305 0
276 -307 0
305 -307 0
-276 -305 307 0
c gate 308 -306 -307 0
-306 -308 0
-307 -308 0
306 307 308 0
c gate 309 -259 308 0
-259 -309 0
308 -309 0
259 -308 309 0
c gate 310 259 -308 0
259 -310 0
-308 -310 0
-259 308 310 0
c gate 311 -309 -310 0
-309 -311 0
-310 -311 0
309 310 311 0
c gate 312 -258 -311 0
-258 -312 0
-311 -312 0
258 311 312 0
c gate 313 258 311 0
258 -313 0
311 -313 0
-258 -311 313 0
c gate 314 -312 -313 0
-312 -314 0
-313 -314 0
312 313 314 0
c gate 315 253 -314 0
253 -315 0
-314 -315 0
-253 314 315 0
c gate 316 -253 314 0
-253 -316 0
314 -316 0
253 -314 316 0
c gate 317 -315 -316 0
-315 -317 0
-316 -317 0
315 316 317 0
c gate 318 -222 -224 0
-222 -318 0
-224 -318 0
222 224 318 0
c gate 319 317 318 0
317 -319 0
318 -319 0
-317 -318 319 0
c gate 320 -317 -318 0
-317 -320 0
-318 -320 0
317 318 320 0
c gate 321 -319 -320 0
-319 -321 0
-320 -321 0
319 320 321 0
c gate 322 252 -321 0
252 -322 0
-321 -322 0
-252 321 322 0
c PO
322 0
